(set-info :smt-lib-version 2.6)
(set-logic UFLIA)
(set-info :source |Benchmarks from the paper: "Extending Sledgehammer with SMT Solvers" by Jasmin Blanchette, Sascha Bohme, and Lawrence C. Paulson, CADE 2011.  Translated to SMT2 by Andrew Reynolds and Morgan Deters.|)
(set-info :category "industrial")
(set-info :status unknown)
(declare-sort S1 0)
(declare-sort S2 0)
(declare-sort S3 0)
(declare-sort S4 0)
(declare-sort S5 0)
(declare-sort S6 0)
(declare-sort S7 0)
(declare-sort S8 0)
(declare-sort S9 0)
(declare-sort S10 0)
(declare-sort S11 0)
(declare-sort S12 0)
(declare-sort S13 0)
(declare-sort S14 0)
(declare-sort S15 0)
(declare-sort S16 0)
(declare-sort S17 0)
(declare-sort S18 0)
(declare-sort S19 0)
(declare-sort S20 0)
(declare-sort S21 0)
(declare-sort S22 0)
(declare-fun f1 () S1)
(declare-fun f2 () S1)
(declare-fun f3 (S3 S2) S1)
(declare-fun f4 () S3)
(declare-fun f5 (S5 S4) S1)
(declare-fun f6 () S5)
(declare-fun f7 (S5 S5) S1)
(declare-fun f8 () S5)
(declare-fun f9 (S6 S7) Int)
(declare-fun f10 () S6)
(declare-fun f11 () S7)
(declare-fun f12 (S8 S5) S7)
(declare-fun f13 () S8)
(declare-fun f14 (S9 Int) S7)
(declare-fun f15 () S9)
(declare-fun f16 (S10) S1)
(declare-fun f17 (S5 S5) S1)
(declare-fun f18 (S11 S5) S5)
(declare-fun f19 (S4) S11)
(declare-fun f20 (S12 S10) S4)
(declare-fun f21 () S12)
(declare-fun f22 () S5)
(declare-fun f23 (S3) S1)
(declare-fun f24 () S3)
(declare-fun f25 (S13 S3) S5)
(declare-fun f26 (S14) S13)
(declare-fun f27 () S14)
(declare-fun f28 (S2 S3) S1)
(declare-fun f29 (S14 S2) S4)
(declare-fun f30 (S5) S1)
(declare-fun f31 (S16 S5) S3)
(declare-fun f32 (S15) S16)
(declare-fun f33 (S18 S3) S3)
(declare-fun f34 (S17) S18)
(declare-fun f35 (S19) S11)
(declare-fun f36 (S3 S3) S1)
(declare-fun f37 () S3)
(declare-fun f38 (S2) S18)
(declare-fun f39 (S20 S21) S10)
(declare-fun f40 () S20)
(declare-fun f41 (S2) S21)
(declare-fun f42 (S22 S3) S7)
(declare-fun f43 () S22)
(declare-fun f44 (S4 S5) S1)
(declare-fun f45 (S15 S4) S2)
(declare-fun f46 (S17 S2) S2)
(declare-fun f47 (S19 S4) S4)
(declare-fun f48 (S5) S5)
(declare-fun f49 (S3) S3)
(assert (not (= f1 f2)))
(assert (forall ((?v0 S2)) (= (= (f3 f4 ?v0) f1) false)))
(assert (forall ((?v0 S4)) (= (= (f5 f6 ?v0) f1) false)))
(assert (not (forall ((?v0 S5)) (let ((?v_0 (f9 f10 (f12 f13 f8))) (?v_1 (f9 f10 f11))) (=> (= (f7 ?v0 f8) f1) (=> (<= ?v_1 ?v_0) (=> (= (f12 f13 ?v0) (f14 f15 (- ?v_0 ?v_1))) (forall ((?v1 S10)) (=> (= (f16 ?v1) f1) (= (f17 ?v0 (f18 (f19 (f20 f21 ?v1)) f22)) f1))))))))))
(assert (= (f23 f24) f1))
(assert (= f8 (f25 (f26 f27) f24)))
(assert (forall ((?v0 S5) (?v1 S5)) (=> (= (f7 ?v0 ?v1) f1) (= (f17 ?v1 ?v0) f1))))
(assert (forall ((?v0 S10) (?v1 S5)) (=> (= (f16 ?v0) f1) (=> (forall ((?v2 S2)) (=> (= (f28 ?v2 f24) f1) (= (f17 ?v1 (f18 (f19 (f29 f27 ?v2)) f22)) f1))) (= (f17 ?v1 (f18 (f19 (f20 f21 ?v0)) f22)) f1)))))
(assert (forall ((?v0 S3) (?v1 S14)) (=> (= (f23 ?v0) f1) (= (f30 (f25 (f26 ?v1) ?v0)) f1))))
(assert (forall ((?v0 S5) (?v1 S15)) (=> (= (f30 ?v0) f1) (= (f23 (f31 (f32 ?v1) ?v0)) f1))))
(assert (forall ((?v0 S3) (?v1 S17)) (=> (= (f23 ?v0) f1) (= (f23 (f33 (f34 ?v1) ?v0)) f1))))
(assert (forall ((?v0 S5) (?v1 S19)) (=> (= (f30 ?v0) f1) (= (f30 (f18 (f35 ?v1) ?v0)) f1))))
(assert (forall ((?v0 S5)) (= (f7 f22 ?v0) f1)))
(assert (forall ((?v0 S3)) (= (f36 f37 ?v0) f1)))
(assert (forall ((?v0 S5) (?v1 S4)) (=> (= (f30 ?v0) f1) (= (f30 (f18 (f19 ?v1) ?v0)) f1))))
(assert (forall ((?v0 S3) (?v1 S2)) (=> (= (f23 ?v0) f1) (= (f23 (f33 (f38 ?v1) ?v0)) f1))))
(assert (= (f23 f37) f1))
(assert (= (f30 f22) f1))
(assert (forall ((?v0 S2) (?v1 S5)) (let ((?v_0 (f19 (f29 f27 ?v0)))) (=> (= (f17 (f18 ?v_0 ?v1) (f18 (f19 (f20 f21 (f39 f40 (f41 ?v0)))) f22)) f1) (= (f17 ?v1 (f18 ?v_0 f22)) f1)))))
(assert (forall ((?v0 S3) (?v1 S14)) (=> (= (f23 ?v0) f1) (<= (f9 f10 (f12 f13 (f25 (f26 ?v1) ?v0))) (f9 f10 (f42 f43 ?v0))))))
(assert (forall ((?v0 S5) (?v1 S15)) (=> (= (f30 ?v0) f1) (<= (f9 f10 (f42 f43 (f31 (f32 ?v1) ?v0))) (f9 f10 (f12 f13 ?v0))))))
(assert (forall ((?v0 S5) (?v1 S19)) (=> (= (f30 ?v0) f1) (<= (f9 f10 (f12 f13 (f18 (f35 ?v1) ?v0))) (f9 f10 (f12 f13 ?v0))))))
(assert (forall ((?v0 S3) (?v1 S17)) (=> (= (f23 ?v0) f1) (<= (f9 f10 (f42 f43 (f33 (f34 ?v1) ?v0))) (f9 f10 (f42 f43 ?v0))))))
(assert (forall ((?v0 S5) (?v1 S5)) (=> (= (f30 ?v0) f1) (=> (= (f7 ?v1 ?v0) f1) (<= (f9 f10 (f12 f13 ?v1)) (f9 f10 (f12 f13 ?v0)))))))
(assert (forall ((?v0 S3) (?v1 S3)) (=> (= (f23 ?v0) f1) (=> (= (f36 ?v1 ?v0) f1) (<= (f9 f10 (f42 f43 ?v1)) (f9 f10 (f42 f43 ?v0)))))))
(assert (forall ((?v0 S5) (?v1 S5)) (=> (= (f30 ?v0) f1) (=> (= (f7 ?v1 ?v0) f1) (=> (<= (f9 f10 (f12 f13 ?v0)) (f9 f10 (f12 f13 ?v1))) (= ?v1 ?v0))))))
(assert (forall ((?v0 S3) (?v1 S3)) (=> (= (f23 ?v0) f1) (=> (= (f36 ?v1 ?v0) f1) (=> (<= (f9 f10 (f42 f43 ?v0)) (f9 f10 (f42 f43 ?v1))) (= ?v1 ?v0))))))
(assert (forall ((?v0 S5) (?v1 S4)) (=> (= (f30 ?v0) f1) (<= (f9 f10 (f12 f13 ?v0)) (f9 f10 (f12 f13 (f18 (f19 ?v1) ?v0)))))))
(assert (forall ((?v0 S3) (?v1 S2)) (=> (= (f23 ?v0) f1) (<= (f9 f10 (f42 f43 ?v0)) (f9 f10 (f42 f43 (f33 (f38 ?v1) ?v0)))))))
(assert (forall ((?v0 S5) (?v1 S4)) (let ((?v_0 (f12 f13 ?v0))) (=> (= (f30 ?v0) f1) (= (f12 f13 (f18 (f19 ?v1) ?v0)) (ite (= (f44 ?v1 ?v0) f1) ?v_0 (f14 f15 (+ (f9 f10 ?v_0) 1))))))))
(assert (forall ((?v0 S3) (?v1 S2)) (let ((?v_0 (f42 f43 ?v0))) (=> (= (f23 ?v0) f1) (= (f42 f43 (f33 (f38 ?v1) ?v0)) (ite (= (f28 ?v1 ?v0) f1) ?v_0 (f14 f15 (+ (f9 f10 ?v_0) 1))))))))
(assert (forall ((?v0 S5) (?v1 S4)) (=> (= (f30 ?v0) f1) (=> (not (= (f44 ?v1 ?v0) f1)) (= (f12 f13 (f18 (f19 ?v1) ?v0)) (f14 f15 (+ (f9 f10 (f12 f13 ?v0)) 1)))))))
(assert (forall ((?v0 S3) (?v1 S2)) (=> (= (f23 ?v0) f1) (=> (not (= (f28 ?v1 ?v0) f1)) (= (f42 f43 (f33 (f38 ?v1) ?v0)) (f14 f15 (+ (f9 f10 (f42 f43 ?v0)) 1)))))))
(assert (forall ((?v0 S5) (?v1 S4)) (=> (= (f30 ?v0) f1) (=> (not (= (f44 ?v1 ?v0) f1)) (= (f12 f13 (f18 (f19 ?v1) ?v0)) (f14 f15 (+ 1 (f9 f10 (f12 f13 ?v0)))))))))
(assert (forall ((?v0 S3) (?v1 S2)) (=> (= (f23 ?v0) f1) (=> (not (= (f28 ?v1 ?v0) f1)) (= (f42 f43 (f33 (f38 ?v1) ?v0)) (f14 f15 (+ 1 (f9 f10 (f42 f43 ?v0)))))))))
(assert (forall ((?v0 S2)) (=> (= (f28 ?v0 f37) f1) false)))
(assert (forall ((?v0 S4)) (=> (= (f44 ?v0 f22) f1) false)))
(assert (forall ((?v0 S4) (?v1 S5) (?v2 S4)) (=> (=> (not (= (f44 ?v0 ?v1) f1)) (= ?v0 ?v2)) (= (f44 ?v0 (f18 (f19 ?v2) ?v1)) f1))))
(assert (forall ((?v0 S2) (?v1 S3) (?v2 S2)) (=> (=> (not (= (f28 ?v0 ?v1) f1)) (= ?v0 ?v2)) (= (f28 ?v0 (f33 (f38 ?v2) ?v1)) f1))))
(assert (forall ((?v0 S4) (?v1 S4) (?v2 S5)) (=> (= (f44 ?v0 (f18 (f19 ?v1) ?v2)) f1) (=> (=> (= ?v0 ?v1) false) (=> (=> (= (f44 ?v0 ?v2) f1) false) false)))))
(assert (forall ((?v0 S2) (?v1 S2) (?v2 S3)) (=> (= (f28 ?v0 (f33 (f38 ?v1) ?v2)) f1) (=> (=> (= ?v0 ?v1) false) (=> (=> (= (f28 ?v0 ?v2) f1) false) false)))))
(assert (forall ((?v0 S5) (?v1 S5)) (=> (= (f7 ?v0 ?v1) f1) (=> (= (f7 ?v1 ?v0) f1) (= ?v0 ?v1)))))
(assert (forall ((?v0 S3) (?v1 S3)) (=> (= (f36 ?v0 ?v1) f1) (=> (= (f36 ?v1 ?v0) f1) (= ?v0 ?v1)))))
(assert (forall ((?v0 S3) (?v1 S3) (?v2 S2)) (=> (= (f36 ?v0 ?v1) f1) (=> (= (f28 ?v2 ?v0) f1) (= (f28 ?v2 ?v1) f1)))))
(assert (forall ((?v0 S5) (?v1 S5) (?v2 S4)) (=> (= (f7 ?v0 ?v1) f1) (=> (= (f44 ?v2 ?v0) f1) (= (f44 ?v2 ?v1) f1)))))
(assert (forall ((?v0 S4) (?v1 S14) (?v2 S2) (?v3 S3)) (=> (= ?v0 (f29 ?v1 ?v2)) (=> (= (f28 ?v2 ?v3) f1) (= (f44 ?v0 (f25 (f26 ?v1) ?v3)) f1)))))
(assert (forall ((?v0 S2) (?v1 S15) (?v2 S4) (?v3 S5)) (=> (= ?v0 (f45 ?v1 ?v2)) (=> (= (f44 ?v2 ?v3) f1) (= (f28 ?v0 (f31 (f32 ?v1) ?v3)) f1)))))
(assert (forall ((?v0 S2) (?v1 S17) (?v2 S2) (?v3 S3)) (=> (= ?v0 (f46 ?v1 ?v2)) (=> (= (f28 ?v2 ?v3) f1) (= (f28 ?v0 (f33 (f34 ?v1) ?v3)) f1)))))
(assert (forall ((?v0 S4) (?v1 S19) (?v2 S4) (?v3 S5)) (=> (= ?v0 (f47 ?v1 ?v2)) (=> (= (f44 ?v2 ?v3) f1) (= (f44 ?v0 (f18 (f35 ?v1) ?v3)) f1)))))
(assert (forall ((?v0 S2)) (=> (= (f28 ?v0 f24) f1) (= (f16 (f39 f40 (f41 ?v0))) f1))))
(assert (forall ((?v0 S3) (?v1 S2)) (=> (= ?v0 f37) (not (= (f28 ?v1 ?v0) f1)))))
(assert (forall ((?v0 S5) (?v1 S4)) (=> (= ?v0 f22) (not (= (f44 ?v1 ?v0) f1)))))
(assert (forall ((?v0 S5)) (= (= (f48 ?v0) f22) (forall ((?v1 S4)) (not (= (f5 ?v0 ?v1) f1))))))
(assert (forall ((?v0 S3)) (= (= (f49 ?v0) f37) (forall ((?v1 S2)) (not (= (f3 ?v0 ?v1) f1))))))
(assert (forall ((?v0 S2)) (= (= (f28 ?v0 f37) f1) false)))
(assert (forall ((?v0 S4)) (= (= (f44 ?v0 f22) f1) false)))
(assert (forall ((?v0 S5)) (= (= f22 (f48 ?v0)) (forall ((?v1 S4)) (not (= (f5 ?v0 ?v1) f1))))))
(assert (forall ((?v0 S3)) (= (= f37 (f49 ?v0)) (forall ((?v1 S2)) (not (= (f3 ?v0 ?v1) f1))))))
(assert (forall ((?v0 S3)) (= (forall ((?v1 S2)) (=> (= (f28 ?v1 f37) f1) (= (f3 ?v0 ?v1) f1))) true)))
(assert (forall ((?v0 S5)) (= (forall ((?v1 S4)) (=> (= (f44 ?v1 f22) f1) (= (f5 ?v0 ?v1) f1))) true)))
(assert (forall ((?v0 S3)) (= (exists ((?v1 S2)) (and (= (f28 ?v1 f37) f1) (= (f3 ?v0 ?v1) f1))) false)))
(assert (forall ((?v0 S5)) (= (exists ((?v1 S4)) (and (= (f44 ?v1 f22) f1) (= (f5 ?v0 ?v1) f1))) false)))
(assert (forall ((?v0 S3)) (= (exists ((?v1 S2)) (= (f28 ?v1 ?v0) f1)) (not (= ?v0 f37)))))
(assert (forall ((?v0 S5)) (= (exists ((?v1 S4)) (= (f44 ?v1 ?v0) f1)) (not (= ?v0 f22)))))
(assert (forall ((?v0 S3)) (= (forall ((?v1 S2)) (not (= (f28 ?v1 ?v0) f1))) (= ?v0 f37))))
(assert (forall ((?v0 S5)) (= (forall ((?v1 S4)) (not (= (f44 ?v1 ?v0) f1))) (= ?v0 f22))))
(assert (= f22 (f48 f6)))
(assert (= f37 (f49 f4)))
(assert (forall ((?v0 S7)) (= (f14 f15 (f9 f10 ?v0)) ?v0)))
(assert (forall ((?v0 Int)) (=> (<= 0 ?v0) (= (f9 f10 (f14 f15 ?v0)) ?v0))))
(assert (forall ((?v0 Int)) (=> (< ?v0 0) (= (f9 f10 (f14 f15 ?v0)) 0))))
(check-sat)
(exit)
